c File: instances/24_0.40_3.col
c
c Description: Random graph of size 24 vertices and P(0.39999999999999997) of edges between any two vertices.
p col 24 276
e 1 3
e 1 4
e 1 5
e 1 8
e 1 10
e 1 12
e 1 15
e 1 16
e 1 18
e 1 20
e 1 22
e 1 23
e 2 4
e 2 5
e 2 8
e 2 9
e 2 12
e 2 14
e 2 16
e 2 18
e 2 20
e 2 24
e 3 6
e 3 10
e 3 11
e 3 12
e 3 15
e 3 17
e 3 19
e 3 24
e 4 10
e 4 13
e 4 17
e 4 18
e 4 20
e 4 21
e 4 22
e 5 8
e 5 9
e 5 10
e 5 15
e 5 17
e 5 18
e 5 20
e 5 22
e 6 8
e 6 9
e 6 14
e 6 19
e 6 21
e 6 22
e 7 8
e 7 10
e 7 14
e 7 16
e 7 18
e 7 21
e 7 22
e 7 23
e 8 10
e 8 11
e 8 12
e 8 13
e 8 14
e 8 16
e 8 18
e 8 20
e 8 22
e 8 24
e 9 10
e 9 11
e 9 13
e 9 14
e 9 16
e 9 17
e 9 18
e 9 19
e 9 21
e 9 22
e 10 11
e 10 15
e 10 19
e 10 20
e 10 21
e 10 24
e 11 14
e 11 17
e 11 18
e 11 21
e 12 17
e 12 19
e 12 20
e 13 14
e 13 15
e 13 18
e 13 19
e 13 21
e 14 16
e 14 17
e 14 20
e 14 21
e 14 22
e 14 23
e 14 24
e 15 16
e 15 17
e 15 20
e 15 22
e 16 17
e 16 18
e 16 21
e 16 23
e 17 18
e 17 24
e 18 21
e 18 22
e 18 23
e 19 22
e 20 21
e 20 24